# 3d Lennard-Jones 
units		lj
atom_style	atomic
atom_modify	map array
boundary	p p p

pair_style	morse 1.4
pair_modify shift yes mix arithmetic
#pair_modify shift yes mix arithmetic


#read_data polydisperse_morse_input.lmp.gz
read_data polydisperse_morse_input.lmp


minimize 1.0e-10 1.0e-10 1000 1000

velocity	all create 1 87287 loop geom


fix		1 all nvt temp 1. 1. 5.

thermo 1000

timestep 0.001

dump MYDUMP all atom 1000 dump.lammpstrj
dump_modify MYDUMP sort id

dump XYZDUMP all xyz 1000 dump.xyz
dump_modify XYZDUMP sort id
run		10000

write_data end.lmp  pair ii
